(set-logic SLIA)
(synth-fun f ((_arg_0 String)) String
  ( (Start String (ntString))
  (argString String (
	_arg_0
  ))
  (conString String (
	" "
  ))
  (fullString String (
	conString
	(str.substr argString ntInt ntInt)
  ))
  (regex String (
	"ProperCase"
	"CAPS"
	"lowercase"
	"Digits"
	"Alphabets"
	"Alphanumeric"
	"WhiteSpace"
	"StartT"
	"EndT"
	"ProperCaseWSpaces"
	"CAPSWSpaces"
	"lowercaseSpaces"
	"AlphabetsWSpaces"
	"Sep"
  ))
  (ntString String (
	fullString
	(str.++ fullString ntString)
  ))
  (direction Int (
	0 1
  ))
  (conPos Int (
	0 1 2 3 4 5 6 7 8 9 10
  ))
  (conMatch Int (
	1 2 3 -1 -2 -3
  ))
  (ntInt Int (
	conPos
	(str.indexof argString regex conMatch direction)
  ))
 )
)

(constraint (= (f "Launa|Withers") "Withers Launa"))
(constraint (= (f "Launa|Withers") "Withers Launa"))
(constraint (= (f "Launa|Withers") "Withers Launa"))
(constraint (= (f "Lakenya|Edison") "Edison Lakenya"))
(constraint (= (f "Lakenya|Edison") "Edison Lakenya"))
(constraint (= (f "Lakenya|Edison") "Edison Lakenya"))
(constraint (= (f "Brendan|Hage") "Hage Brendan"))
(constraint (= (f "Brendan|Hage") "Hage Brendan"))
(constraint (= (f "Brendan|Hage") "Hage Brendan"))
(constraint (= (f "Bradford|Lango") "Lango Bradford"))
(constraint (= (f "Bradford|Lango") "Lango Bradford"))
(constraint (= (f "Bradford|Lango") "Lango Bradford"))
(constraint (= (f "Rudolf|Akiyama") "Akiyama Rudolf"))
(constraint (= (f "Rudolf|Akiyama") "Akiyama Rudolf"))
(constraint (= (f "Rudolf|Akiyama") "Akiyama Rudolf"))
(constraint (= (f "Lara|Constable") "Constable Lara"))
(constraint (= (f "Lara|Constable") "Constable Lara"))
(constraint (= (f "Lara|Constable") "Constable Lara"))
(constraint (= (f "Madelaine|Ghoston") "Ghoston Madelaine"))
(constraint (= (f "Madelaine|Ghoston") "Ghoston Madelaine"))
(constraint (= (f "Madelaine|Ghoston") "Ghoston Madelaine"))
(constraint (= (f "Salley|Hornak") "Hornak Salley"))
(constraint (= (f "Salley|Hornak") "Hornak Salley"))
(constraint (= (f "Salley|Hornak") "Hornak Salley"))
(constraint (= (f "Micha|Junkin") "Junkin Micha"))
(constraint (= (f "Micha|Junkin") "Junkin Micha"))
(constraint (= (f "Micha|Junkin") "Junkin Micha"))
(constraint (= (f "Teddy|Bobo") "Bobo Teddy"))
(constraint (= (f "Teddy|Bobo") "Bobo Teddy"))
(constraint (= (f "Teddy|Bobo") "Bobo Teddy"))
(constraint (= (f "Coralee|Scalia") "Scalia Coralee"))
(constraint (= (f "Coralee|Scalia") "Scalia Coralee"))
(constraint (= (f "Coralee|Scalia") "Scalia Coralee"))
(constraint (= (f "Jeff|Quashie") "Quashie Jeff"))
(constraint (= (f "Jeff|Quashie") "Quashie Jeff"))
(constraint (= (f "Jeff|Quashie") "Quashie Jeff"))
(constraint (= (f "Vena|Babiarz") "Babiarz Vena"))
(constraint (= (f "Vena|Babiarz") "Babiarz Vena"))
(constraint (= (f "Vena|Babiarz") "Babiarz Vena"))
(constraint (= (f "Karrie|Lain") "Lain Karrie"))
(constraint (= (f "Karrie|Lain") "Lain Karrie"))
(constraint (= (f "Karrie|Lain") "Lain Karrie"))
(constraint (= (f "Tobias|Dermody") "Dermody Tobias"))
(constraint (= (f "Tobias|Dermody") "Dermody Tobias"))
(constraint (= (f "Tobias|Dermody") "Dermody Tobias"))
(constraint (= (f "Celsa|Hopkins") "Hopkins Celsa"))
(constraint (= (f "Celsa|Hopkins") "Hopkins Celsa"))
(constraint (= (f "Celsa|Hopkins") "Hopkins Celsa"))
(constraint (= (f "Kimberley|Halpern") "Halpern Kimberley"))
(constraint (= (f "Kimberley|Halpern") "Halpern Kimberley"))
(constraint (= (f "Kimberley|Halpern") "Halpern Kimberley"))
(constraint (= (f "Phillip|Rowden") "Rowden Phillip"))
(constraint (= (f "Phillip|Rowden") "Rowden Phillip"))
(constraint (= (f "Phillip|Rowden") "Rowden Phillip"))
(constraint (= (f "Elias|Neil") "Neil Elias"))
(constraint (= (f "Elias|Neil") "Neil Elias"))
(constraint (= (f "Elias|Neil") "Neil Elias"))
(constraint (= (f "Lashanda|Cortes") "Cortes Lashanda"))
(constraint (= (f "Lashanda|Cortes") "Cortes Lashanda"))
(constraint (= (f "Lashanda|Cortes") "Cortes Lashanda"))
(constraint (= (f "Mackenzie|Spell") "Spell Mackenzie"))
(constraint (= (f "Mackenzie|Spell") "Spell Mackenzie"))
(constraint (= (f "Mackenzie|Spell") "Spell Mackenzie"))
(constraint (= (f "Kathlyn|Eccleston") "Eccleston Kathlyn"))
(constraint (= (f "Kathlyn|Eccleston") "Eccleston Kathlyn"))
(constraint (= (f "Kathlyn|Eccleston") "Eccleston Kathlyn"))
(constraint (= (f "Georgina|Brescia") "Brescia Georgina"))
(constraint (= (f "Georgina|Brescia") "Brescia Georgina"))
(constraint (= (f "Georgina|Brescia") "Brescia Georgina"))
(constraint (= (f "Beata|Miah") "Miah Beata"))
(constraint (= (f "Beata|Miah") "Miah Beata"))
(constraint (= (f "Beata|Miah") "Miah Beata"))
(constraint (= (f "Desiree|Seamons") "Seamons Desiree"))
(constraint (= (f "Desiree|Seamons") "Seamons Desiree"))
(constraint (= (f "Desiree|Seamons") "Seamons Desiree"))
(constraint (= (f "Jeanice|Soderstrom") "Soderstrom Jeanice"))
(constraint (= (f "Jeanice|Soderstrom") "Soderstrom Jeanice"))
(constraint (= (f "Jeanice|Soderstrom") "Soderstrom Jeanice"))
(constraint (= (f "Mariel|Jurgens") "Jurgens Mariel"))
(constraint (= (f "Mariel|Jurgens") "Jurgens Mariel"))
(constraint (= (f "Mariel|Jurgens") "Jurgens Mariel"))
(constraint (= (f "Alida|Bogle") "Bogle Alida"))
(constraint (= (f "Alida|Bogle") "Bogle Alida"))
(constraint (= (f "Alida|Bogle") "Bogle Alida"))
(constraint (= (f "Jacqualine|Olague") "Olague Jacqualine"))
(constraint (= (f "Jacqualine|Olague") "Olague Jacqualine"))
(constraint (= (f "Jacqualine|Olague") "Olague Jacqualine"))
(constraint (= (f "Joaquin|Clasen") "Clasen Joaquin"))
(constraint (= (f "Joaquin|Clasen") "Clasen Joaquin"))
(constraint (= (f "Joaquin|Clasen") "Clasen Joaquin"))
(constraint (= (f "Samuel|Richert") "Richert Samuel"))
(constraint (= (f "Samuel|Richert") "Richert Samuel"))
(constraint (= (f "Samuel|Richert") "Richert Samuel"))
(constraint (= (f "Malissa|Marcus") "Marcus Malissa"))
(constraint (= (f "Malissa|Marcus") "Marcus Malissa"))
(constraint (= (f "Malissa|Marcus") "Marcus Malissa"))
(constraint (= (f "Alaina|Partida") "Partida Alaina"))
(constraint (= (f "Alaina|Partida") "Partida Alaina"))
(constraint (= (f "Alaina|Partida") "Partida Alaina"))
(constraint (= (f "Trinidad|Mulloy") "Mulloy Trinidad"))
(constraint (= (f "Trinidad|Mulloy") "Mulloy Trinidad"))
(constraint (= (f "Trinidad|Mulloy") "Mulloy Trinidad"))
(constraint (= (f "Carlene|Garrard") "Garrard Carlene"))
(constraint (= (f "Carlene|Garrard") "Garrard Carlene"))
(constraint (= (f "Carlene|Garrard") "Garrard Carlene"))
(constraint (= (f "Melodi|Chism") "Chism Melodi"))
(constraint (= (f "Melodi|Chism") "Chism Melodi"))
(constraint (= (f "Melodi|Chism") "Chism Melodi"))
(constraint (= (f "Bess|Chilcott") "Chilcott Bess"))
(constraint (= (f "Bess|Chilcott") "Chilcott Bess"))
(constraint (= (f "Bess|Chilcott") "Chilcott Bess"))
(constraint (= (f "Chong|Aylward") "Aylward Chong"))
(constraint (= (f "Chong|Aylward") "Aylward Chong"))
(constraint (= (f "Chong|Aylward") "Aylward Chong"))
(constraint (= (f "Jani|Ramthun") "Ramthun Jani"))
(constraint (= (f "Jani|Ramthun") "Ramthun Jani"))
(constraint (= (f "Jani|Ramthun") "Ramthun Jani"))
(constraint (= (f "Jacquiline|Heintz") "Heintz Jacquiline"))
(constraint (= (f "Jacquiline|Heintz") "Heintz Jacquiline"))
(constraint (= (f "Jacquiline|Heintz") "Heintz Jacquiline"))
(constraint (= (f "Hayley|Marquess") "Marquess Hayley"))
(constraint (= (f "Hayley|Marquess") "Marquess Hayley"))
(constraint (= (f "Hayley|Marquess") "Marquess Hayley"))
(constraint (= (f "Andria|Spagnoli") "Spagnoli Andria"))
(constraint (= (f "Andria|Spagnoli") "Spagnoli Andria"))
(constraint (= (f "Andria|Spagnoli") "Spagnoli Andria"))
(constraint (= (f "Irwin|Covelli") "Covelli Irwin"))
(constraint (= (f "Irwin|Covelli") "Covelli Irwin"))
(constraint (= (f "Irwin|Covelli") "Covelli Irwin"))
(constraint (= (f "Gertude|Montiel") "Montiel Gertude"))
(constraint (= (f "Gertude|Montiel") "Montiel Gertude"))
(constraint (= (f "Gertude|Montiel") "Montiel Gertude"))
(constraint (= (f "Stefany|Reily") "Reily Stefany"))
(constraint (= (f "Stefany|Reily") "Reily Stefany"))
(constraint (= (f "Stefany|Reily") "Reily Stefany"))
(constraint (= (f "Rae|Mcgaughey") "Mcgaughey Rae"))
(constraint (= (f "Rae|Mcgaughey") "Mcgaughey Rae"))
(constraint (= (f "Rae|Mcgaughey") "Mcgaughey Rae"))
(constraint (= (f "Cruz|Latimore") "Latimore Cruz"))
(constraint (= (f "Cruz|Latimore") "Latimore Cruz"))
(constraint (= (f "Cruz|Latimore") "Latimore Cruz"))
(constraint (= (f "Maryann|Casler") "Casler Maryann"))
(constraint (= (f "Maryann|Casler") "Casler Maryann"))
(constraint (= (f "Maryann|Casler") "Casler Maryann"))
(constraint (= (f "Annalisa|Gregori") "Gregori Annalisa"))
(constraint (= (f "Annalisa|Gregori") "Gregori Annalisa"))
(constraint (= (f "Annalisa|Gregori") "Gregori Annalisa"))
(constraint (= (f "Jenee|Pannell") "Pannell Jenee"))
(constraint (= (f "Jenee|Pannell") "Pannell Jenee"))
(constraint (= (f "Jenee|Pannell") "Pannell Jenee"))
(constraint (= (f "Launa|Withers") "Withers Launa"))
(constraint (= (f "Lakenya|Edison") "Edison Lakenya"))
(constraint (= (f "Brendan|Hage") "Hage Brendan"))
(constraint (= (f "Bradford|Lango") "Lango Bradford"))
(constraint (= (f "Rudolf|Akiyama") "Akiyama Rudolf"))
(constraint (= (f "Lara|Constable") "Constable Lara"))
(constraint (= (f "Madelaine|Ghoston") "Ghoston Madelaine"))
(constraint (= (f "Salley|Hornak") "Hornak Salley"))
(constraint (= (f "Micha|Junkin") "Junkin Micha"))
(constraint (= (f "Teddy|Bobo") "Bobo Teddy"))
(constraint (= (f "Coralee|Scalia") "Scalia Coralee"))
(constraint (= (f "Jeff|Quashie") "Quashie Jeff"))
(constraint (= (f "Vena|Babiarz") "Babiarz Vena"))
(constraint (= (f "Karrie|Lain") "Lain Karrie"))
(constraint (= (f "Tobias|Dermody") "Dermody Tobias"))
(constraint (= (f "Celsa|Hopkins") "Hopkins Celsa"))
(constraint (= (f "Kimberley|Halpern") "Halpern Kimberley"))
(constraint (= (f "Phillip|Rowden") "Rowden Phillip"))
(constraint (= (f "Elias|Neil") "Neil Elias"))
(constraint (= (f "Lashanda|Cortes") "Cortes Lashanda"))
(constraint (= (f "Mackenzie|Spell") "Spell Mackenzie"))
(constraint (= (f "Kathlyn|Eccleston") "Eccleston Kathlyn"))
(constraint (= (f "Georgina|Brescia") "Brescia Georgina"))
(constraint (= (f "Beata|Miah") "Miah Beata"))
(constraint (= (f "Desiree|Seamons") "Seamons Desiree"))
(constraint (= (f "Jeanice|Soderstrom") "Soderstrom Jeanice"))
(constraint (= (f "Mariel|Jurgens") "Jurgens Mariel"))
(constraint (= (f "Alida|Bogle") "Bogle Alida"))
(constraint (= (f "Jacqualine|Olague") "Olague Jacqualine"))
(constraint (= (f "Joaquin|Clasen") "Clasen Joaquin"))
(constraint (= (f "Samuel|Richert") "Richert Samuel"))
(constraint (= (f "Malissa|Marcus") "Marcus Malissa"))
(constraint (= (f "Alaina|Partida") "Partida Alaina"))
(constraint (= (f "Trinidad|Mulloy") "Mulloy Trinidad"))
(constraint (= (f "Carlene|Garrard") "Garrard Carlene"))
(constraint (= (f "Melodi|Chism") "Chism Melodi"))
(constraint (= (f "Bess|Chilcott") "Chilcott Bess"))
(constraint (= (f "Chong|Aylward") "Aylward Chong"))
(constraint (= (f "Jani|Ramthun") "Ramthun Jani"))
(constraint (= (f "Jacquiline|Heintz") "Heintz Jacquiline"))
(constraint (= (f "Hayley|Marquess") "Marquess Hayley"))
(constraint (= (f "Andria|Spagnoli") "Spagnoli Andria"))
(constraint (= (f "Irwin|Covelli") "Covelli Irwin"))
(constraint (= (f "Gertude|Montiel") "Montiel Gertude"))
(constraint (= (f "Stefany|Reily") "Reily Stefany"))
(constraint (= (f "Rae|Mcgaughey") "Mcgaughey Rae"))
(constraint (= (f "Cruz|Latimore") "Latimore Cruz"))
(constraint (= (f "Maryann|Casler") "Casler Maryann"))
(constraint (= (f "Annalisa|Gregori") "Gregori Annalisa"))
(constraint (= (f "Jenee|Pannell") "Pannell Jenee"))
(check-synth)
